(set-info :smt-lib-version 2.6)
(set-logic QF_NRA)
(set-info :source |
Generated by a component of the Ultimate program analysis framework [1] 
that implements a constraint-based synthesis of invariants [2].

This SMT script belongs to a set of SMT scripts that was generated by 
applying Ultimate to benchmarks [3] from the SV-COMP 2017 [4,5].

This script might _not_ contain all SMT commands that are used by 
Ultimate . In order to satisfy the restrictions of
the SMT-COMP we have to drop e.g., the commands for getting
values (resp. models), unsatisfiable cores and interpolants.

2017-05-01, Matthias Heizmann (heizmann@informatik.uni-freiburg.de)


[1] https://ultimate.informatik.uni-freiburg.de/
[2] Michael Colon, Sriram Sankaranarayanan, Henny Sipma: Linear Invariant 
Generation Using Non-linear Constraint Solving. CAV 2003: 420-432
[3] https://github.com/sosy-lab/sv-benchmarks
[4] Dirk Beyer: Software Verification with Validation of Results - 
(Report on SV-COMP 2017). TACAS (2) 2017: 331-349
[5] https://sv-comp.sosy-lab.org/2017/
|)
(set-info :license "https://creativecommons.org/licenses/by/4.0/")
(set-info :category "industrial")
(set-info :status unknown)
(declare-fun lp_0_0c () Real)
(declare-fun lp_0_0_ULTIMATE.start_main_~i~4 () Real)
(declare-fun lp_1_1c () Real)
(declare-fun lp_1_1_ULTIMATE.start_main_~i~4 () Real)
(declare-fun lp_2_2c () Real)
(declare-fun lp_2_2_ULTIMATE.start_main_~i~4 () Real)
(declare-fun lp_3_3c () Real)
(declare-fun lp_3_3_ULTIMATE.start_main_~i~4 () Real)
(declare-fun lp_4_4c () Real)
(declare-fun lp_4_4_ULTIMATE.start_main_~i~4 () Real)
(declare-fun lp_5_5c () Real)
(declare-fun lp_5_5_ULTIMATE.start_main_~i~4 () Real)
(declare-fun lp_6_6c () Real)
(declare-fun lp_6_6_ULTIMATE.start_main_~i~4 () Real)
(declare-fun lp_7_7c () Real)
(declare-fun lp_7_7_ULTIMATE.start_main_~i~4 () Real)
(declare-fun lp_8_8c () Real)
(declare-fun lp_8_8_ULTIMATE.start_main_~i~4 () Real)
(declare-fun motzkin_1860_0 () Real)
(declare-fun motzkin_1860_1 () Real)
(declare-fun motzkin_1860_2 () Real)
(assert (and (>= motzkin_1860_0 0.0) (>= motzkin_1860_1 0.0) (>= motzkin_1860_2 0.0) (= (+ motzkin_1860_0 (* motzkin_1860_1 (- 1.0)) (* motzkin_1860_2 (+ (* (- 1.0) lp_0_0_ULTIMATE.start_main_~i~4) 0.0))) 0.0) (<= (* motzkin_1860_2 (+ (* (- 1.0) lp_0_0c) 0.0)) 0.0) (or (< 0.0 0.0) (> motzkin_1860_2 0.0))))
(declare-fun motzkin_1861_0 () Real)
(declare-fun motzkin_1861_1 () Real)
(declare-fun motzkin_1861_2 () Real)
(declare-fun motzkin_1861_3 () Real)
(declare-fun motzkin_1861_4 () Real)
(assert (and (>= motzkin_1861_0 0.0) (>= motzkin_1861_1 0.0) (>= motzkin_1861_2 0.0) (>= motzkin_1861_3 0.0) (>= motzkin_1861_4 0.0) (= (+ motzkin_1861_0 (* motzkin_1861_2 (- 1.0)) (* motzkin_1861_3 (+ (* (- 1.0) lp_0_0_ULTIMATE.start_main_~i~4) 0.0))) 0.0) (= (+ (* motzkin_1861_0 (- 1.0)) (* motzkin_1861_1 (- 1.0)) motzkin_1861_2 (* motzkin_1861_4 (+ (* 1.0 lp_0_0_ULTIMATE.start_main_~i~4) 0.0))) 0.0) (<= (+ (* motzkin_1861_0 (- 1.0)) (* motzkin_1861_1 99999.0) motzkin_1861_2 (* motzkin_1861_3 (+ (* (- 1.0) lp_0_0c) 0.0)) (* motzkin_1861_4 (+ (* 1.0 lp_0_0c) 0.0))) 0.0) (or (< (+ (* motzkin_1861_0 (- 1.0)) (* motzkin_1861_1 99999.0) motzkin_1861_2 (* motzkin_1861_4 (+ (* 1.0 lp_0_0c) 0.0))) 0.0) (> motzkin_1861_3 0.0))))
(declare-fun motzkin_1862_0 () Real)
(declare-fun motzkin_1862_1 () Real)
(declare-fun motzkin_1862_2 () Real)
(declare-fun motzkin_1862_3 () Real)
(declare-fun motzkin_1862_4 () Real)
(assert (and (>= motzkin_1862_0 0.0) (>= motzkin_1862_1 0.0) (>= motzkin_1862_2 0.0) (>= motzkin_1862_3 0.0) (>= motzkin_1862_4 0.0) (= (+ motzkin_1862_0 (* motzkin_1862_2 (- 1.0)) (* motzkin_1862_3 (+ (* (- 1.0) lp_1_1_ULTIMATE.start_main_~i~4) 0.0))) 0.0) (= (+ motzkin_1862_1 (* motzkin_1862_4 (+ (* 1.0 lp_0_0_ULTIMATE.start_main_~i~4) 0.0))) 0.0) (<= (+ (* motzkin_1862_1 (- 100000.0)) (* motzkin_1862_3 (+ (* (- 1.0) lp_1_1c) 0.0)) (* motzkin_1862_4 (+ (* 1.0 lp_0_0c) 0.0))) 0.0) (or (< (+ (* motzkin_1862_1 (- 100000.0)) (* motzkin_1862_4 (+ (* 1.0 lp_0_0c) 0.0))) 0.0) (> motzkin_1862_3 0.0))))
(declare-fun motzkin_1863_0 () Real)
(declare-fun motzkin_1863_1 () Real)
(declare-fun motzkin_1863_2 () Real)
(declare-fun motzkin_1863_3 () Real)
(declare-fun motzkin_1863_4 () Real)
(assert (and (>= motzkin_1863_0 0.0) (>= motzkin_1863_1 0.0) (>= motzkin_1863_2 0.0) (>= motzkin_1863_3 0.0) (>= motzkin_1863_4 0.0) (= (+ motzkin_1863_0 (* motzkin_1863_1 (- 1.0)) (* motzkin_1863_3 (+ (* (- 1.0) lp_2_2_ULTIMATE.start_main_~i~4) 0.0))) 0.0) (= (+ motzkin_1863_2 (* motzkin_1863_4 (+ (* 1.0 lp_1_1_ULTIMATE.start_main_~i~4) 0.0))) 0.0) (<= (+ (* motzkin_1863_2 (- 100000.0)) (* motzkin_1863_3 (+ (* (- 1.0) lp_2_2c) 0.0)) (* motzkin_1863_4 (+ (* 1.0 lp_1_1c) 0.0))) 0.0) (or (< (+ (* motzkin_1863_2 (- 100000.0)) (* motzkin_1863_4 (+ (* 1.0 lp_1_1c) 0.0))) 0.0) (> motzkin_1863_3 0.0))))
(declare-fun motzkin_1864_0 () Real)
(declare-fun motzkin_1864_1 () Real)
(declare-fun motzkin_1864_2 () Real)
(declare-fun motzkin_1864_3 () Real)
(declare-fun motzkin_1864_4 () Real)
(assert (and (>= motzkin_1864_0 0.0) (>= motzkin_1864_1 0.0) (>= motzkin_1864_2 0.0) (>= motzkin_1864_3 0.0) (>= motzkin_1864_4 0.0) (= (+ (* motzkin_1864_0 (- 1.0)) motzkin_1864_1 (* motzkin_1864_2 (- 1.0)) (* motzkin_1864_4 (+ (* 1.0 lp_1_1_ULTIMATE.start_main_~i~4) 0.0))) 0.0) (= (+ (* motzkin_1864_1 (- 1.0)) motzkin_1864_2 (* motzkin_1864_3 (+ (* (- 1.0) lp_1_1_ULTIMATE.start_main_~i~4) 0.0))) 0.0) (<= (+ (* motzkin_1864_0 99999.0) motzkin_1864_1 (* motzkin_1864_2 (- 1.0)) (* motzkin_1864_3 (+ (* (- 1.0) lp_1_1c) 0.0)) (* motzkin_1864_4 (+ (* 1.0 lp_1_1c) 0.0))) 0.0) (or (< (+ (* motzkin_1864_0 99999.0) motzkin_1864_1 (* motzkin_1864_2 (- 1.0)) (* motzkin_1864_4 (+ (* 1.0 lp_1_1c) 0.0))) 0.0) (> motzkin_1864_3 0.0))))
(declare-fun motzkin_1865_0 () Real)
(declare-fun motzkin_1865_1 () Real)
(declare-fun motzkin_1865_2 () Real)
(declare-fun motzkin_1865_3 () Real)
(declare-fun motzkin_1865_4 () Real)
(assert (and (>= motzkin_1865_0 0.0) (>= motzkin_1865_1 0.0) (>= motzkin_1865_2 0.0) (>= motzkin_1865_3 0.0) (>= motzkin_1865_4 0.0) (= (+ (* motzkin_1865_0 (- 1.0)) motzkin_1865_2 (* motzkin_1865_3 (+ (* (- 1.0) lp_3_3_ULTIMATE.start_main_~i~4) 0.0))) 0.0) (= (+ motzkin_1865_1 (* motzkin_1865_4 (+ (* 1.0 lp_2_2_ULTIMATE.start_main_~i~4) 0.0))) 0.0) (<= (+ (* motzkin_1865_1 (- 100000.0)) (* motzkin_1865_3 (+ (* (- 1.0) lp_3_3c) 0.0)) (* motzkin_1865_4 (+ (* 1.0 lp_2_2c) 0.0))) 0.0) (or (< (+ (* motzkin_1865_1 (- 100000.0)) (* motzkin_1865_4 (+ (* 1.0 lp_2_2c) 0.0))) 0.0) (> motzkin_1865_3 0.0))))
(declare-fun motzkin_1866_0 () Real)
(declare-fun motzkin_1866_1 () Real)
(declare-fun motzkin_1866_2 () Real)
(declare-fun motzkin_1866_3 () Real)
(declare-fun motzkin_1866_4 () Real)
(assert (and (>= motzkin_1866_0 0.0) (>= motzkin_1866_1 0.0) (>= motzkin_1866_2 0.0) (>= motzkin_1866_3 0.0) (>= motzkin_1866_4 0.0) (= (+ (* motzkin_1866_0 (- 1.0)) motzkin_1866_1 (* motzkin_1866_2 (- 1.0)) (* motzkin_1866_4 (+ (* 1.0 lp_2_2_ULTIMATE.start_main_~i~4) 0.0))) 0.0) (= (+ (* motzkin_1866_1 (- 1.0)) motzkin_1866_2 (* motzkin_1866_3 (+ (* (- 1.0) lp_2_2_ULTIMATE.start_main_~i~4) 0.0))) 0.0) (<= (+ (* motzkin_1866_0 99999.0) motzkin_1866_1 (* motzkin_1866_2 (- 1.0)) (* motzkin_1866_3 (+ (* (- 1.0) lp_2_2c) 0.0)) (* motzkin_1866_4 (+ (* 1.0 lp_2_2c) 0.0))) 0.0) (or (< (+ (* motzkin_1866_0 99999.0) motzkin_1866_1 (* motzkin_1866_2 (- 1.0)) (* motzkin_1866_4 (+ (* 1.0 lp_2_2c) 0.0))) 0.0) (> motzkin_1866_3 0.0))))
(declare-fun motzkin_1867_0 () Real)
(declare-fun motzkin_1867_1 () Real)
(declare-fun motzkin_1867_2 () Real)
(declare-fun motzkin_1867_3 () Real)
(declare-fun motzkin_1867_4 () Real)
(assert (and (>= motzkin_1867_0 0.0) (>= motzkin_1867_1 0.0) (>= motzkin_1867_2 0.0) (>= motzkin_1867_3 0.0) (>= motzkin_1867_4 0.0) (= (+ (* motzkin_1867_0 (- 1.0)) motzkin_1867_1 (* motzkin_1867_2 (- 1.0)) (* motzkin_1867_4 (+ (* 1.0 lp_3_3_ULTIMATE.start_main_~i~4) 0.0))) 0.0) (= (+ (* motzkin_1867_1 (- 1.0)) motzkin_1867_2 (* motzkin_1867_3 (+ (* (- 1.0) lp_3_3_ULTIMATE.start_main_~i~4) 0.0))) 0.0) (<= (+ (* motzkin_1867_0 99999.0) motzkin_1867_1 (* motzkin_1867_2 (- 1.0)) (* motzkin_1867_3 (+ (* (- 1.0) lp_3_3c) 0.0)) (* motzkin_1867_4 (+ (* 1.0 lp_3_3c) 0.0))) 0.0) (or (< (+ (* motzkin_1867_0 99999.0) motzkin_1867_1 (* motzkin_1867_2 (- 1.0)) (* motzkin_1867_4 (+ (* 1.0 lp_3_3c) 0.0))) 0.0) (> motzkin_1867_3 0.0))))
(declare-fun motzkin_1868_0 () Real)
(declare-fun motzkin_1868_1 () Real)
(declare-fun motzkin_1868_2 () Real)
(declare-fun motzkin_1868_3 () Real)
(declare-fun motzkin_1868_4 () Real)
(assert (and (>= motzkin_1868_0 0.0) (>= motzkin_1868_1 0.0) (>= motzkin_1868_2 0.0) (>= motzkin_1868_3 0.0) (>= motzkin_1868_4 0.0) (= (+ motzkin_1868_0 (* motzkin_1868_2 (- 1.0)) (* motzkin_1868_3 (+ (* (- 1.0) lp_4_4_ULTIMATE.start_main_~i~4) 0.0))) 0.0) (= (+ motzkin_1868_1 (* motzkin_1868_4 (+ (* 1.0 lp_3_3_ULTIMATE.start_main_~i~4) 0.0))) 0.0) (<= (+ (* motzkin_1868_1 (- 100000.0)) (* motzkin_1868_3 (+ (* (- 1.0) lp_4_4c) 0.0)) (* motzkin_1868_4 (+ (* 1.0 lp_3_3c) 0.0))) 0.0) (or (< (+ (* motzkin_1868_1 (- 100000.0)) (* motzkin_1868_4 (+ (* 1.0 lp_3_3c) 0.0))) 0.0) (> motzkin_1868_3 0.0))))
(declare-fun motzkin_1869_0 () Real)
(declare-fun motzkin_1869_1 () Real)
(declare-fun motzkin_1869_2 () Real)
(declare-fun motzkin_1869_3 () Real)
(declare-fun motzkin_1869_4 () Real)
(assert (and (>= motzkin_1869_0 0.0) (>= motzkin_1869_1 0.0) (>= motzkin_1869_2 0.0) (>= motzkin_1869_3 0.0) (>= motzkin_1869_4 0.0) (= (+ motzkin_1869_0 (* motzkin_1869_4 (+ (* 1.0 lp_4_4_ULTIMATE.start_main_~i~4) 0.0))) 0.0) (= (+ motzkin_1869_1 (* motzkin_1869_2 (- 1.0)) (* motzkin_1869_3 (+ (* (- 1.0) lp_5_5_ULTIMATE.start_main_~i~4) 0.0))) 0.0) (<= (+ (* motzkin_1869_0 (- 100000.0)) (* motzkin_1869_3 (+ (* (- 1.0) lp_5_5c) 0.0)) (* motzkin_1869_4 (+ (* 1.0 lp_4_4c) 0.0))) 0.0) (or (< (+ (* motzkin_1869_0 (- 100000.0)) (* motzkin_1869_4 (+ (* 1.0 lp_4_4c) 0.0))) 0.0) (> motzkin_1869_3 0.0))))
(declare-fun motzkin_1870_0 () Real)
(declare-fun motzkin_1870_1 () Real)
(declare-fun motzkin_1870_2 () Real)
(declare-fun motzkin_1870_3 () Real)
(declare-fun motzkin_1870_4 () Real)
(assert (and (>= motzkin_1870_0 0.0) (>= motzkin_1870_1 0.0) (>= motzkin_1870_2 0.0) (>= motzkin_1870_3 0.0) (>= motzkin_1870_4 0.0) (= (+ (* motzkin_1870_0 (- 1.0)) motzkin_1870_1 (* motzkin_1870_3 (+ (* (- 1.0) lp_4_4_ULTIMATE.start_main_~i~4) 0.0))) 0.0) (= (+ motzkin_1870_0 (* motzkin_1870_1 (- 1.0)) (* motzkin_1870_2 (- 1.0)) (* motzkin_1870_4 (+ (* 1.0 lp_4_4_ULTIMATE.start_main_~i~4) 0.0))) 0.0) (<= (+ motzkin_1870_0 (* motzkin_1870_1 (- 1.0)) (* motzkin_1870_2 99999.0) (* motzkin_1870_3 (+ (* (- 1.0) lp_4_4c) 0.0)) (* motzkin_1870_4 (+ (* 1.0 lp_4_4c) 0.0))) 0.0) (or (< (+ motzkin_1870_0 (* motzkin_1870_1 (- 1.0)) (* motzkin_1870_2 99999.0) (* motzkin_1870_4 (+ (* 1.0 lp_4_4c) 0.0))) 0.0) (> motzkin_1870_3 0.0))))
(declare-fun motzkin_1871_0 () Real)
(declare-fun motzkin_1871_1 () Real)
(declare-fun motzkin_1871_2 () Real)
(declare-fun motzkin_1871_3 () Real)
(declare-fun motzkin_1871_4 () Real)
(assert (and (>= motzkin_1871_0 0.0) (>= motzkin_1871_1 0.0) (>= motzkin_1871_2 0.0) (>= motzkin_1871_3 0.0) (>= motzkin_1871_4 0.0) (= (+ (* motzkin_1871_0 (- 1.0)) motzkin_1871_2 (* motzkin_1871_3 (+ (* (- 1.0) lp_5_5_ULTIMATE.start_main_~i~4) 0.0))) 0.0) (= (+ motzkin_1871_0 (* motzkin_1871_1 (- 1.0)) (* motzkin_1871_2 (- 1.0)) (* motzkin_1871_4 (+ (* 1.0 lp_5_5_ULTIMATE.start_main_~i~4) 0.0))) 0.0) (<= (+ motzkin_1871_0 (* motzkin_1871_1 99999.0) (* motzkin_1871_2 (- 1.0)) (* motzkin_1871_3 (+ (* (- 1.0) lp_5_5c) 0.0)) (* motzkin_1871_4 (+ (* 1.0 lp_5_5c) 0.0))) 0.0) (or (< (+ motzkin_1871_0 (* motzkin_1871_1 99999.0) (* motzkin_1871_2 (- 1.0)) (* motzkin_1871_4 (+ (* 1.0 lp_5_5c) 0.0))) 0.0) (> motzkin_1871_3 0.0))))
(declare-fun motzkin_1872_0 () Real)
(declare-fun motzkin_1872_1 () Real)
(declare-fun motzkin_1872_2 () Real)
(declare-fun motzkin_1872_3 () Real)
(declare-fun motzkin_1872_4 () Real)
(assert (and (>= motzkin_1872_0 0.0) (>= motzkin_1872_1 0.0) (>= motzkin_1872_2 0.0) (>= motzkin_1872_3 0.0) (>= motzkin_1872_4 0.0) (= (+ (* motzkin_1872_0 (- 1.0)) motzkin_1872_2 (* motzkin_1872_3 (+ (* (- 1.0) lp_6_6_ULTIMATE.start_main_~i~4) 0.0))) 0.0) (= (+ motzkin_1872_1 (* motzkin_1872_4 (+ (* 1.0 lp_5_5_ULTIMATE.start_main_~i~4) 0.0))) 0.0) (<= (+ (* motzkin_1872_1 (- 100000.0)) (* motzkin_1872_3 (+ (* (- 1.0) lp_6_6c) 0.0)) (* motzkin_1872_4 (+ (* 1.0 lp_5_5c) 0.0))) 0.0) (or (< (+ (* motzkin_1872_1 (- 100000.0)) (* motzkin_1872_4 (+ (* 1.0 lp_5_5c) 0.0))) 0.0) (> motzkin_1872_3 0.0))))
(declare-fun motzkin_1873_0 () Real)
(declare-fun motzkin_1873_1 () Real)
(declare-fun motzkin_1873_2 () Real)
(declare-fun motzkin_1873_3 () Real)
(declare-fun motzkin_1873_4 () Real)
(assert (and (>= motzkin_1873_0 0.0) (>= motzkin_1873_1 0.0) (>= motzkin_1873_2 0.0) (>= motzkin_1873_3 0.0) (>= motzkin_1873_4 0.0) (= (+ motzkin_1873_0 (* motzkin_1873_2 (- 1.0)) (* motzkin_1873_3 (+ (* (- 1.0) lp_7_7_ULTIMATE.start_main_~i~4) 0.0))) 0.0) (= (+ motzkin_1873_1 (* motzkin_1873_4 (+ (* 1.0 lp_6_6_ULTIMATE.start_main_~i~4) 0.0))) 0.0) (<= (+ (* motzkin_1873_1 (- 100000.0)) (* motzkin_1873_3 (+ (* (- 1.0) lp_7_7c) 0.0)) (* motzkin_1873_4 (+ (* 1.0 lp_6_6c) 0.0))) 0.0) (or (< (+ (* motzkin_1873_1 (- 100000.0)) (* motzkin_1873_4 (+ (* 1.0 lp_6_6c) 0.0))) 0.0) (> motzkin_1873_3 0.0))))
(declare-fun motzkin_1874_0 () Real)
(declare-fun motzkin_1874_1 () Real)
(declare-fun motzkin_1874_2 () Real)
(declare-fun motzkin_1874_3 () Real)
(declare-fun motzkin_1874_4 () Real)
(assert (and (>= motzkin_1874_0 0.0) (>= motzkin_1874_1 0.0) (>= motzkin_1874_2 0.0) (>= motzkin_1874_3 0.0) (>= motzkin_1874_4 0.0) (= (+ (* motzkin_1874_0 (- 1.0)) motzkin_1874_1 (* motzkin_1874_2 (- 1.0)) (* motzkin_1874_4 (+ (* 1.0 lp_6_6_ULTIMATE.start_main_~i~4) 0.0))) 0.0) (= (+ (* motzkin_1874_1 (- 1.0)) motzkin_1874_2 (* motzkin_1874_3 (+ (* (- 1.0) lp_6_6_ULTIMATE.start_main_~i~4) 0.0))) 0.0) (<= (+ (* motzkin_1874_0 99999.0) motzkin_1874_1 (* motzkin_1874_2 (- 1.0)) (* motzkin_1874_3 (+ (* (- 1.0) lp_6_6c) 0.0)) (* motzkin_1874_4 (+ (* 1.0 lp_6_6c) 0.0))) 0.0) (or (< (+ (* motzkin_1874_0 99999.0) motzkin_1874_1 (* motzkin_1874_2 (- 1.0)) (* motzkin_1874_4 (+ (* 1.0 lp_6_6c) 0.0))) 0.0) (> motzkin_1874_3 0.0))))
(declare-fun motzkin_1875_0 () Real)
(declare-fun motzkin_1875_1 () Real)
(declare-fun motzkin_1875_2 () Real)
(declare-fun motzkin_1875_3 () Real)
(declare-fun motzkin_1875_4 () Real)
(assert (and (>= motzkin_1875_0 0.0) (>= motzkin_1875_1 0.0) (>= motzkin_1875_2 0.0) (>= motzkin_1875_3 0.0) (>= motzkin_1875_4 0.0) (= (+ (* motzkin_1875_0 (- 1.0)) motzkin_1875_2 (* motzkin_1875_3 (+ (* (- 1.0) lp_7_7_ULTIMATE.start_main_~i~4) 0.0))) 0.0) (= (+ motzkin_1875_0 (* motzkin_1875_1 (- 1.0)) (* motzkin_1875_2 (- 1.0)) (* motzkin_1875_4 (+ (* 1.0 lp_7_7_ULTIMATE.start_main_~i~4) 0.0))) 0.0) (<= (+ motzkin_1875_0 (* motzkin_1875_1 99999.0) (* motzkin_1875_2 (- 1.0)) (* motzkin_1875_3 (+ (* (- 1.0) lp_7_7c) 0.0)) (* motzkin_1875_4 (+ (* 1.0 lp_7_7c) 0.0))) 0.0) (or (< (+ motzkin_1875_0 (* motzkin_1875_1 99999.0) (* motzkin_1875_2 (- 1.0)) (* motzkin_1875_4 (+ (* 1.0 lp_7_7c) 0.0))) 0.0) (> motzkin_1875_3 0.0))))
(declare-fun motzkin_1876_0 () Real)
(declare-fun motzkin_1876_1 () Real)
(declare-fun motzkin_1876_2 () Real)
(declare-fun motzkin_1876_3 () Real)
(declare-fun motzkin_1876_4 () Real)
(assert (and (>= motzkin_1876_0 0.0) (>= motzkin_1876_1 0.0) (>= motzkin_1876_2 0.0) (>= motzkin_1876_3 0.0) (>= motzkin_1876_4 0.0) (= (+ motzkin_1876_0 (* motzkin_1876_1 (- 1.0)) (* motzkin_1876_3 (+ (* (- 1.0) lp_8_8_ULTIMATE.start_main_~i~4) 0.0))) 0.0) (= (+ motzkin_1876_2 (* motzkin_1876_4 (+ (* 1.0 lp_7_7_ULTIMATE.start_main_~i~4) 0.0))) 0.0) (<= (+ (* motzkin_1876_2 (- 100000.0)) (* motzkin_1876_3 (+ (* (- 1.0) lp_8_8c) 0.0)) (* motzkin_1876_4 (+ (* 1.0 lp_7_7c) 0.0))) 0.0) (or (< (+ (* motzkin_1876_2 (- 100000.0)) (* motzkin_1876_4 (+ (* 1.0 lp_7_7c) 0.0))) 0.0) (> motzkin_1876_3 0.0))))
(declare-fun motzkin_1877_0 () Real)
(declare-fun motzkin_1877_1 () Real)
(declare-fun motzkin_1877_2 () Real)
(declare-fun motzkin_1877_3 () Real)
(declare-fun motzkin_1877_4 () Real)
(assert (and (>= motzkin_1877_0 0.0) (>= motzkin_1877_1 0.0) (>= motzkin_1877_2 0.0) (>= motzkin_1877_3 0.0) (>= motzkin_1877_4 0.0) (= (+ (* motzkin_1877_0 (- 1.0)) motzkin_1877_1 (* motzkin_1877_3 (+ (* (- 1.0) lp_8_8_ULTIMATE.start_main_~i~4) 0.0))) 0.0) (= (+ motzkin_1877_0 (* motzkin_1877_1 (- 1.0)) (* motzkin_1877_2 (- 1.0)) (* motzkin_1877_4 (+ (* 1.0 lp_8_8_ULTIMATE.start_main_~i~4) 0.0))) 0.0) (<= (+ motzkin_1877_0 (* motzkin_1877_1 (- 1.0)) (* motzkin_1877_2 99999.0) (* motzkin_1877_3 (+ (* (- 1.0) lp_8_8c) 0.0)) (* motzkin_1877_4 (+ (* 1.0 lp_8_8c) 0.0))) 0.0) (or (< (+ motzkin_1877_0 (* motzkin_1877_1 (- 1.0)) (* motzkin_1877_2 99999.0) (* motzkin_1877_4 (+ (* 1.0 lp_8_8c) 0.0))) 0.0) (> motzkin_1877_3 0.0))))
(declare-fun motzkin_1878_0 () Real)
(declare-fun motzkin_1878_1 () Real)
(declare-fun motzkin_1878_2 () Real)
(declare-fun motzkin_1878_3 () Real)
(declare-fun motzkin_1878_4 () Real)
(declare-fun motzkin_1878_5 () Real)
(declare-fun motzkin_1878_6 () Real)
(declare-fun motzkin_1878_7 () Real)
(declare-fun motzkin_1878_8 () Real)
(declare-fun motzkin_1879_0 () Real)
(declare-fun motzkin_1879_1 () Real)
(declare-fun motzkin_1879_2 () Real)
(declare-fun motzkin_1879_3 () Real)
(declare-fun motzkin_1879_4 () Real)
(declare-fun motzkin_1879_5 () Real)
(declare-fun motzkin_1879_6 () Real)
(declare-fun motzkin_1879_7 () Real)
(declare-fun motzkin_1879_8 () Real)
(assert (and (>= motzkin_1878_0 0.0) (>= motzkin_1878_1 0.0) (>= motzkin_1878_2 0.0) (>= motzkin_1878_3 0.0) (>= motzkin_1878_4 0.0) (>= motzkin_1878_5 0.0) (>= motzkin_1878_6 0.0) (>= motzkin_1878_7 0.0) (>= motzkin_1878_8 0.0) (= (+ (* motzkin_1878_0 (- 1.0)) motzkin_1878_1 (* motzkin_1878_2 (- 1.0)) motzkin_1878_5) 0.0) (= (+ motzkin_1878_0 (* motzkin_1878_5 (- 1.0))) 0.0) (= (+ motzkin_1878_3 (* motzkin_1878_6 (- 1.0))) 0.0) (= (+ motzkin_1878_4 (* motzkin_1878_8 (+ (* 1.0 lp_8_8_ULTIMATE.start_main_~i~4) 0.0))) 0.0) (= motzkin_1878_7 0.0) (<= (+ (* motzkin_1878_4 (- 100000.0)) (* motzkin_1878_7 (- 50.0)) (* motzkin_1878_8 (+ (* 1.0 lp_8_8c) 0.0))) 0.0) (or (< (+ (* motzkin_1878_4 (- 100000.0)) (* motzkin_1878_7 (- 50.0)) (* motzkin_1878_8 (+ (* 1.0 lp_8_8c) 0.0))) 0.0) (> 0.0 0.0)) (>= motzkin_1879_0 0.0) (>= motzkin_1879_1 0.0) (>= motzkin_1879_2 0.0) (>= motzkin_1879_3 0.0) (>= motzkin_1879_4 0.0) (>= motzkin_1879_5 0.0) (>= motzkin_1879_6 0.0) (>= motzkin_1879_7 0.0) (>= motzkin_1879_8 0.0) (= (+ (* motzkin_1879_0 (- 1.0)) motzkin_1879_1 (* motzkin_1879_2 (- 1.0)) motzkin_1879_5) 0.0) (= (+ motzkin_1879_0 (* motzkin_1879_5 (- 1.0))) 0.0) (= (+ motzkin_1879_3 (* motzkin_1879_6 (- 1.0))) 0.0) (= (+ motzkin_1879_4 (* motzkin_1879_8 (+ (* 1.0 lp_8_8_ULTIMATE.start_main_~i~4) 0.0))) 0.0) (= (* motzkin_1879_7 (- 1.0)) 0.0) (<= (+ (* motzkin_1879_4 (- 100000.0)) (* motzkin_1879_7 48.0) (* motzkin_1879_8 (+ (* 1.0 lp_8_8c) 0.0))) 0.0) (or (< (+ (* motzkin_1879_4 (- 100000.0)) (* motzkin_1879_7 48.0) (* motzkin_1879_8 (+ (* 1.0 lp_8_8c) 0.0))) 0.0) (> 0.0 0.0))))
(check-sat)
(exit)
